words_hard_train/4190.qaiger
aag 70 16 0 1 54
2
4
8
12
16
20
28
30
44
58
72
86
96
106
110
126
141
6 3 5
10 6 9
14 10 13
18 14 17
22 19 20
24 18 21
26 23 25
32 28 30
34 27 33
36 26 32
38 35 37
40 15 16
42 41 19
46 44 30
48 42 47
50 43 46
52 49 51
54 11 12
56 55 15
60 58 20
62 57 60
64 56 61
66 63 65
68 7 8
70 69 11
74 72 16
76 71 74
78 70 75
80 77 79
82 2 4
84 83 7
88 86 12
90 84 89
92 85 88
94 91 93
98 96 8
100 99 4
102 98 5
104 101 103
108 106 2
112 109 110
114 108 111
116 113 115
118 104 117
120 94 118
122 80 120
124 66 122
128 127 30
130 128 24
132 129 25
134 131 133
136 124 134
138 52 136
140 39 138
i0 2 y2[2]
i1 2 y2[1]
i2 2 y2[3]
i3 2 y2[4]
i4 2 y2[5]
i5 2 y2[6]
i6 1 x2[6]
i7 2 y2[7]
i8 1 x2[5]
i9 1 x2[4]
i10 1 x2[3]
i11 1 x2[2]
i12 1 x2[1]
i13 1 x2[0]
i14 2 y2[0]
i15 1 x2[7]
o0 bool[0]
c
simplified
  !=
    subtract
      1
      2 y2
    and
      >> 2
        2 y2
      1 x2
