words_hard_train/4190.qaiger.qdimacs
p cnf 70 163
a 36 43 14 48 53 22 29 63 0
e 1 2 3 4 5 6 7 8 9 10 11 12 13 15 16 17 18 19 20 21 23 24 25 26 27 28 30 31 32 33 34 35 37 38 39 40 41 42 44 45 46 47 49 50 51 52 54 55 56 57 58 59 60 61 62 64 65 66 67 68 69 70 0
1 2 3 0
-1 -3 0
-2 -3 0
-3 4 5 0
3 -5 0
-4 -5 0
-5 6 7 0
5 -7 0
-6 -7 0
-7 8 9 0
7 -9 0
-8 -9 0
9 -10 11 0
-9 -11 0
10 -11 0
-9 10 12 0
9 -12 0
-10 -12 0
11 12 13 0
-11 -13 0
-12 -13 0
-14 -15 16 0
14 -16 0
15 -16 0
13 16 17 0
-13 -17 0
-16 -17 0
-13 -16 18 0
13 -18 0
16 -18 0
17 18 19 0
-17 -19 0
-18 -19 0
7 -8 20 0
-7 -20 0
8 -20 0
20 9 21 0
-20 -21 0
-9 -21 0
-22 -15 23 0
22 -23 0
15 -23 0
-21 23 24 0
21 -24 0
-23 -24 0
21 -23 25 0
-21 -25 0
23 -25 0
24 25 26 0
-24 -26 0
-25 -26 0
5 -6 27 0
-5 -27 0
6 -27 0
27 7 28 0
-27 -28 0
-7 -28 0
-29 -10 30 0
29 -30 0
10 -30 0
28 -30 31 0
-28 -31 0
30 -31 0
-28 30 32 0
28 -32 0
-30 -32 0
31 32 33 0
-31 -33 0
-32 -33 0
3 -4 34 0
-3 -34 0
4 -34 0
34 5 35 0
-34 -35 0
-5 -35 0
-36 -8 37 0
36 -37 0
8 -37 0
35 -37 38 0
-35 -38 0
37 -38 0
-35 37 39 0
35 -39 0
-37 -39 0
38 39 40 0
-38 -40 0
-39 -40 0
-1 -2 41 0
1 -41 0
2 -41 0
41 3 42 0
-41 -42 0
-3 -42 0
-43 -6 44 0
43 -44 0
6 -44 0
-42 44 45 0
42 -45 0
-44 -45 0
42 -44 46 0
-42 -46 0
44 -46 0
45 46 47 0
-45 -47 0
-46 -47 0
-48 -4 49 0
48 -49 0
4 -49 0
49 -2 50 0
-49 -50 0
2 -50 0
-49 2 51 0
49 -51 0
-2 -51 0
50 51 52 0
-50 -52 0
-51 -52 0
-53 -1 54 0
53 -54 0
1 -54 0
54 -55 56 0
-54 -56 0
55 -56 0
-54 55 57 0
54 -57 0
-55 -57 0
56 57 58 0
-56 -58 0
-57 -58 0
-52 58 59 0
52 -59 0
-58 -59 0
-47 -59 60 0
47 -60 0
59 -60 0
-40 -60 61 0
40 -61 0
60 -61 0
-33 -61 62 0
33 -62 0
61 -62 0
63 -15 64 0
-63 -64 0
15 -64 0
-64 -12 65 0
64 -65 0
12 -65 0
64 12 66 0
-64 -66 0
-12 -66 0
65 66 67 0
-65 -67 0
-66 -67 0
-62 -67 68 0
62 -68 0
67 -68 0
-26 -68 69 0
26 -69 0
68 -69 0
19 -69 70 0
-19 -70 0
69 -70 0
-70 0
